results/res_prop_muc/res_Cimatti_mathsat_cores/QF_UF/NEQ033_size6.smt.smt2.out

real	0m1.979s
user	0m1.719s
sys	0m0.175s
