results/res_prop_muc/res_Cimatti_mathsat_cores/QF_UF/NEQ033_size6.smt.smt2.res
unsat
( _c0
  _c1172
  _c1173
  _c1174
  _c1175
  _c1176
  _c1178
  _c1179
  _c1180
  _c1181
  _c1184
  _c1185
  _c1186
  _c1190
  _c1191
  _c1196
  _c1202
  _c3117
  _c3123
  _c4411
  _c4427
  _c475
  _c477
  _c478
  _c479
  _c480
  _c487
  _c488
  _c489
  _c490
  _c491
  _c492
  _c493
  _c495
  _c497
  _c498
  _c499
  _c500
  _c501
  _c502
  _c503
  _c504
  _c505
  _c506
  _c507
  _c508
  _c509
  _c510
  _c511
  _c512
  _c513
  _c516
  _c5334
  _c5335
  _c5336
  _c5337
  _c5338
  _c5339
  _c5600
  _c5601
  _c5602
  _c5603
  _c5604
  _c5605
  _c5948
  _c5984
  _c6165
  _c6166
  _c6169
  _c6170
  _c6172
  _c6173
  _c6174
  _c6175
  _c6177
  _c6179
  _c6180
  _c6181
  _c6182
  _c6183
  _c6186
  _c6187
  _c6189
  _c6190
  _c6191
  _c6193
  _c6195
  _c6196
  _c6197
  _c6198
  _c6201
  _c6202
  _c6203
  _c6204
  _c6205
  _c6206
  _c6208
  _c6209
  _c6210
  _c6211
  _c6212
  _c6213
  _c6215
  _c6216
  _c6217
  _c6218
  _c6219
  _c6220
  _c6222
  _c6223
  _c6224
  _c6225
  _c6226
  _c6227
  _c6229
  _c6230
  _c6231
  _c6232
  _c6233
  _c6234
  _c6273
  _c6278
  _c6281
  _c6283
  _c6288
  _c6293
  _c6299
  _c6300
  _c6301
  _c6303
  _c6304
  _c6305
  _c6307
  _c6309
  _c6310
  _c6313
  _c6314
  _c6317
  _c6319
  _c6321
  _c6322
  _c6325
  _c6331
  _c6333
  _c6335
  _c6336
  _c6337
  _c6339
  _c6340
  _c6341
  _c6345
  _c6346
  _c6348
  _c6366
  _c6369
  _c6371
  _c6375
  _c6380
  _c6388
  _c6392
  _c6395
  _c6397
  _c6401
  _c6420
  _c6454
  _c6455
  _c6456
  _c6457
  _c6458
  _c6459
  _c6527
  _c6528
  _c6529
  _c6530
  _c6531
  _c6532
  _c6538
  _c6544
  _c6550
  _c6556
  _c6563
  _c6564
  _c6565
  _c6566
  _c6567
  _c6568
  _c6569
  _c6570
  _c6571
  _c6572
  _c6573
  _c6574
  _c6575
  _c6576
  _c6577
  _c6579
  _c6581
  _c6585
  _c6587
  _c6589
  _c6591
  _c6592
  _c6593
  _c6594
  _c6599
  _c6600
  _c6601
  _c6602
  _c6603
  _c6604
  _c6606
  _c6608
  _c6610
  _c6611
  _c6612
  _c6613
  _c6614
  _c6615
  _c6618
  _c6622
  _c6623
  _c6624
  _c6625
  _c6627
  _c6630
  _c6637
  _c6639
  _c6640
  _c6641
  _c6643
  _c6644
  _c6649
  _c6650
  _c6651
  _c6652
  _c6653
  _c6654
  _c6655
  _c6656
  _c6657
  _c6658
  _c6659
  _c6660
  _c6661
  _c6663
  _c6664
  _c6666
  _c6669
  _c6672
  _c6673
  _c6674
  _c6675
  _c6676
  _c6677
  _c6678
  _c6680
  _c6682
  _c6683
  _c6685
  _c6686
  _c6687
  _c6688
  _c6689
  _c6692
  _c6694
  _c6695
  _c6696
  _c6697
  _c6698
  _c6699
  _c6703
  _c6704
  _c6705
  _c6707
  _c6708
  _c6709
  _c6710
  _c6711
  _c6712
  _c6716
  _c6718
  _c6719
  _c6720
  _c6723
  _c6724
  _c6726
  _c6728
  _c6729
  _c6730
  _c6731
  _c6732
  _c6735
  _c6736
  _c6737
  _c6738
  _c6739
  _c6740
  _c6741
  _c6778
  _c6779
  _c6780
  _c6781
  _c6782
  _c6783
  _c7013
  _c7014
  _c7015
  _c7016
  _c7017
  _c7193
  _c7194
  _c7195
  _c7196
  _c7200
  _c7201
  _c7202
  _c7203
  _c7204
  _c7205
  _c7207
  _c7208
  _c7209
  _c7210
  _c7211
  _c7212
  _c7215
  _c7216
  _c7217
  _c7218
  _c7219
  _c7221
  _c7222
  _c7223
  _c7224
  _c7225
  _c7226
  _c7234
  _c7235
  _c7236
  _c7237
  _c7238
  _c7240
  _c7241
  _c7242
  _c7243
  _c7246
  _c7247
  _c7248
  _c7252
  _c7253
  _c7258
  _c7516
  _c7517
  _c7518
  _c7519
  _c7520
  _c7521
  _c7842
  _c7843
  _c7844
  _c7845
  _c7846
  _c7847
  _c7848
  _c7849
  _c7850
  _c7851
  _c7852
  _c7853
  _c7854
  _c7855
  _c7856
  _c7857
  _c7858
  _c7859
  _c7860
  _c7861
  _c7862
  _c7863
  _c7864
  _c7865
  _c7866
  _c7867
  _c7868
  _c7869
  _c7870
  _c7871
  _c7872
  _c7873
  _c7874
  _c7875
  _c7876
  _c7954
  _c8567
  _c8568
  _c8575
  _c8576
  _c8577
  _c8578
  _c8579
  _c8580
  _c8581
  _c8582
  _c8583
  _c8584
  _c8585
  _c8586
  _c8587
  _c8588
  _c866
  _c873
  _c880
  _c887
  _c894
  _c901 )
